000 000 000 000 -99 -99 000 -99 -99 -99 -99 -99 -99 000 000 -99 000 000 000 000 000 000 000 -99 000 000 000 -99 -99 -99 000
002 000 000 000 000 000 000 000 000 -99 -99 -99 -99 000 000 000 001 000 000 001 001 002 000 000 000 000 000 -99 -99 -99 000
003 000 000 000 000 000 000 000 000 000 -99 000 000 -99 000 000 001 001 000 001 007 010 003 000 000 000 000 000 000 -99 -99
001 000 000 000 000 000 000 000 000 000 000 000 000 000 000 000 002 006 001 001 014 039 012 002 002 000 000 000 000 000 -99
000 000 000 000 000 000 001 004 000 000 000 001 000 001 000 000 004 009 002 000 010 046 007 002 003 002 000 000 000 -99 -99
000 000 000 000 000 000 003 026 000 000 000 005 001 004 000 000 003 008 004 000 004 012 003 001 001 003 -99 -99 000 -99 -99
000 000 000 000 000 000 004 033 001 000 000 010 003 004 001 001 002 006 002 000 003 002 001 000 000 002 -99 -99 -99 -99 -99
000 000 000 000 000 000 001 011 009 002 001 009 006 003 002 002 002 002 001 001 004 004 001 000 000 001 -99 -99 -99 000 -99
000 000 000 000 000 000 000 003 004 017 015 018 017 005 003 005 003 001 000 003 012 040 006 000 000 000 000 000 -99 000 000
000 000 000 000 000 000 000 001 005 017 024 028 017 009 006 006 003 002 001 004 025 043 029 001 000 000 000 000 -99 000 000
000 000 000 000 000 000 000 001 003 008 008 023 009 013 006 006 005 009 002 003 023 040 020 002 000 000 -99 -99 -99 000 000
000 000 000 000 000 000 000 000 000 002 004 014 006 005 007 007 006 011 004 006 021 031 008 002 000 -99 000 000 -99 000 000
000 000 000 000 000 000 000 000 000 001 005 011 004 004 004 008 011 013 008 009 022 048 010 002 000 -99 -99 -99 -99 -99 000
000 000 000 000 000 000 000 000 000 001 003 008 007 006 004 015 015 016 010 005 011 009 -99 003 000 000 000 000 000 000 000
000 000 000 000 000 000 000 000 001 002 005 008 010 010 005 012 016 018 015 006 005 002 -99 005 000 000 000 000 000 -99 -99
000 000 000 000 000 000 000 000 001 002 005 005 005 006 004 007 011 018 011 011 004 002 012 012 001 000 000 000 000 000 -99
000 000 000 000 000 000 000 000 001 002 003 005 002 002 002 002 005 011 017 017 015 010 012 029 007 001 000 000 000 000 -99
000 000 000 -99 000 000 000 000 000 002 002 000 000 000 000 000 001 001 005 040 021 013 018 037 010 001 000 -99 -99 000 000
000 000 000 -99 -99 -99 000 000 000 001 000 000 000 000 000 000 001 001 003 029 031 035 029 017 009 001 -99 -99 -99 -99 000
000 000 000 000 000 000 000 000 000 000 000 000 000 000 000 000 000 000 000 006 007 015 017 007 010 -99 -99 -99 -99 -99 -99
000 000 000 000 000 000 000 000 000 000 000 000 000 000 000 000 000 000 000 004 004 008 010 008 -99 -99 -99 -99 -99 -99 -99
000 000 000 000 000 000 000 000 000 000 000 000 000 000 000 000 000 000 000 002 001 001 003 -99 -99 -99 -99 -99 -99 -99 -99
000 000 000 000 000 000 000 000 000 000 000 000 000 000 000 000 000 000 000 002 001 001 001 -99 -99 -99 -99 -99 -99 -99 -99
000 000 000 001 001 000 000 000 000 000 000 000 000 000 000 000 000 000 000 000 000 000 000 -99 -99 -99 -99 -99 -99 -99 -99
000 000 000 000 000 000 000 000 000 000 000 000 000 000 000 000 000 000 000 000 000 000 000 -99 -99 -99 -99 -99 -99 -99 -99
000 000 001 000 000 000 000 000 000 000 000 000 000 000 000 000 000 000 000 000 000 000 000 -99 -99 -99 -99 -99 -99 -99 000
000 000 000 000 000 000 001 000 000 000 000 000 000 000 000 000 000 000 000 000 000 000 000 -99 -99 -99 -99 -99 -99 -99 000
000 000 000 000 000 000 000 000 000 000 000 000 000 000 000 000 000 000 000 -99 000 000 001 -99 -99 -99 -99 -99 -99 -99 000
000 000 000 000 000 000 000 000 000 000 000 000 000 000 000 000 000 000 000 000 000 000 -99 -99 -99 -99 -99 -99 -99 -99 000
000 000 000 000 000 000 000 000 000 000 000 000 000 000 000 000 000 000 000 000 000 000 -99 -99 -99 -99 -99 -99 -99 -99 -99
000 000 000 000 000 000 000 000 000 000 000 000 000 000 000 000 000 000 000 000 -99 000 -99 -99 -99 -99 -99 -99 -99 -99 -99
000 000 000 000 001 001 000 000 000 000 000 000 000 000 000 000 000 000 000 -99 000 000 -99 -99 -99 -99 -99 -99 -99 -99 -99
000 000 000 000 001 001 000 000 000 000 000 000 000 000 000 000 000 000 000 -99 000 000 -99 -99 -99 000 -99 000 -99 -99 -99
001 001 002 001 001 001 000 001 000 000 000 001 000 000 000 000 000 000 -99 -99 000 000 -99 000 -99 000 000 000 000 000 000
001 002 002 002 001 001 001 002 001 000 000 000 000 000 000 000 000 -99 -99 -99 000 -99 000 000 -99 000 000 000 000 000 000
003 003 004 003 004 005 004 005 002 001 001 001 000 000 000 000 000 000 000 000 000 -99 000 000 000 000 000 000 000 000 000
004 003 006 006 005 005 006 010 011 006 004 003 000 000 001 003 000 000 000 000 000 -99 000 000 000 000 000 000 000 000 000
003 005 013 006 007 010 007 016 015 012 003 000 000 000 002 001 000 000 000 000 000 -99 000 000 000 000 000 000 000 000 000
001 003 007 011 012 020 016 010 010 008 002 000 000 001 004 000 000 000 -99 000 000 000 000 000 000 000 000 -99 000 000 000
003 006 005 010 022 024 016 004 005 004 001 000 000 001 001 000 000 000 -99 -99 000 000 -99 000 000 000 000 -99 000 000 -99
006 006 004 008 013 012 010 001 001 001 000 000 000 000 000 000 -99 -99 -99 000 000 000 000 000 -99 000 000 -99 -99 -99 -99
003 002 001 004 003 002 002 000 000 000 000 000 000 000 000 000 -99 000 000 000 000 -99 000 000 000 000 000 -99 -99 000 -99
001 001 000 000 000 001 001 000 000 000 000 000 000 000 000 000 -99 000 000 000 000 000 000 -99 000 000 000 -99 -99 -99 000
002 001 000 000 000 000 -99 000 000 000 -99 000 000 000 000 000 000 000 000 000 000 000 000 000 000 000 -99 000 000 -99 000
001 000 000 000 000 000 000 -99 000 000 000 -99 000 000 000 000 000 000 000 000 -99 000 000 000 000 000 000 000 000 -99 -99
001 000 000 000 000 000 000 -99 000 000 000 000 -99 000 000 000 000 000 000 -99 000 000 -99 000 000 000 000 000 -99 -99 -99
001 001 001 001 000 000 000 -99 000 000 000 000 -99 -99 000 000 000 000 000 -99 000 000 000 000 000 000 000 -99 -99 -99 -99
002 003 004 003 000 000 000 -99 000 000 000 -99 -99 000 000 000 000 000 -99 000 000 000 000 000 000 000 -99 -99 -99 -99 -99
002 009 005 002 001 000 000 -99 000 000 000 000 -99 000 000 -99 000 000 -99 000 000 000 000 -99 000 000 000 000 -99 -99 -99
006 003 004 003 001 000 000 000 000 000 000 000 000 000 000 -99 -99 -99 000 000 000 000 -99 -99 -99 -99 000 000 -99 -99 -99
004 005 002 002 003 000 000 000 000 000 000 000 -99 000 000 -99 -99 -99 000 000 000 000 -99 -99 -99 -99 000 -99 -99 -99 -99
005 007 004 002 003 000 000 000 000 000 000 000 000 000 000 -99 -99 -99 000 000 000 -99 -99 -99 -99 000 000 -99 -99 -99 -99
003 004 002 006 003 000 000 -99 -99 000 000 -99 000 000 000 -99 -99 000 000 000 000 -99 -99 -99 -99 -99 -99 -99 -99 -99 -99
002 002 010 009 001 000 000 -99 -99 000 000 000 001 000 000 -99 -99 000 000 000 -99 -99 -99 -99 -99 -99 -99 -99 -99 -99 -99
002 004 002 002 000 000 000 -99 -99 000 -99 000 000 000 -99 -99 -99 -99 -99 -99 -99 000 000 000 -99 000 -99 -99 -99 -99 -99
